c FILE: i080-042

c SOURCE: From steinlib

c DESCRIPTION: Steinlib instance with 80 nodes and 632 edges.

p edge 80 632
e 1 5
e 1 6
e 1 7
e 1 8
e 1 11
e 1 12
e 1 21
e 1 24
e 1 25
e 1 27
e 1 28
e 1 29
e 1 30
e 1 39
e 1 41
e 1 42
e 1 46
e 1 49
e 1 54
e 1 65
e 1 67
e 1 70
e 1 74
e 1 76
e 1 79
e 2 10
e 2 19
e 2 20
e 2 41
e 2 42
e 2 47
e 2 51
e 2 53
e 2 55
e 2 60
e 2 65
e 2 76
e 2 78
e 3 4
e 3 7
e 3 9
e 3 14
e 3 25
e 3 30
e 3 32
e 3 34
e 3 40
e 3 49
e 3 53
e 3 55
e 3 56
e 3 57
e 3 60
e 3 61
e 3 62
e 3 65
e 3 69
e 3 72
e 4 8
e 4 10
e 4 12
e 4 16
e 4 19
e 4 21
e 4 27
e 4 28
e 4 35
e 4 40
e 4 43
e 4 44
e 4 46
e 4 49
e 4 52
e 4 62
e 4 66
e 4 68
e 4 73
e 4 75
e 5 9
e 5 17
e 5 21
e 5 32
e 5 35
e 5 37
e 5 39
e 5 40
e 5 42
e 5 43
e 5 46
e 5 58
e 5 67
e 5 75
e 5 78
e 5 80
e 6 9
e 6 10
e 6 16
e 6 27
e 6 32
e 6 36
e 6 39
e 6 41
e 6 42
e 6 44
e 6 55
e 6 62
e 6 68
e 6 70
e 6 71
e 6 73
e 6 80
e 7 15
e 7 19
e 7 22
e 7 28
e 7 29
e 7 31
e 7 32
e 7 37
e 7 39
e 7 40
e 7 43
e 7 45
e 7 46
e 7 48
e 7 50
e 7 52
e 7 53
e 7 56
e 7 61
e 7 63
e 7 65
e 7 68
e 7 73
e 7 74
e 7 75
e 8 9
e 8 13
e 8 14
e 8 24
e 8 30
e 8 35
e 8 39
e 8 45
e 8 47
e 8 52
e 8 53
e 8 62
e 9 11
e 9 27
e 9 30
e 9 31
e 9 32
e 9 41
e 9 45
e 9 46
e 9 49
e 9 58
e 9 70
e 9 80
e 10 15
e 10 24
e 10 25
e 10 26
e 10 30
e 10 32
e 10 55
e 10 58
e 10 60
e 10 61
e 10 67
e 10 76
e 10 78
e 11 17
e 11 20
e 11 28
e 11 29
e 11 33
e 11 43
e 11 45
e 11 53
e 11 56
e 11 67
e 12 17
e 12 21
e 12 23
e 12 26
e 12 45
e 12 47
e 12 54
e 12 71
e 13 22
e 13 26
e 13 29
e 13 31
e 13 32
e 13 34
e 13 35
e 13 38
e 13 39
e 13 48
e 13 50
e 13 52
e 13 57
e 13 59
e 13 62
e 13 67
e 13 72
e 13 75
e 13 78
e 14 21
e 14 32
e 14 35
e 14 36
e 14 37
e 14 38
e 14 40
e 14 42
e 14 52
e 14 65
e 14 69
e 14 72
e 14 73
e 14 80
e 15 22
e 15 23
e 15 27
e 15 31
e 15 32
e 15 34
e 15 36
e 15 37
e 15 42
e 15 47
e 15 49
e 15 73
e 15 75
e 15 76
e 15 79
e 16 22
e 16 23
e 16 28
e 16 29
e 16 31
e 16 37
e 16 42
e 16 45
e 16 52
e 16 54
e 16 57
e 16 59
e 16 64
e 16 68
e 16 69
e 16 76
e 16 77
e 16 78
e 17 20
e 17 22
e 17 28
e 17 30
e 17 34
e 17 35
e 17 38
e 17 41
e 17 46
e 17 48
e 17 54
e 17 56
e 17 58
e 17 61
e 17 66
e 18 20
e 18 21
e 18 26
e 18 32
e 18 33
e 18 34
e 18 36
e 18 39
e 18 40
e 18 50
e 18 51
e 18 52
e 18 55
e 18 57
e 18 62
e 18 65
e 18 74
e 18 77
e 18 78
e 19 20
e 19 24
e 19 34
e 19 42
e 19 50
e 19 51
e 19 56
e 19 64
e 19 65
e 19 68
e 19 69
e 19 74
e 19 77
e 19 79
e 20 21
e 20 24
e 20 29
e 20 32
e 20 37
e 20 39
e 20 44
e 20 48
e 20 50
e 20 51
e 20 52
e 20 56
e 20 60
e 20 62
e 20 77
e 20 78
e 20 79
e 21 24
e 21 25
e 21 29
e 21 37
e 21 38
e 21 39
e 21 44
e 21 60
e 21 65
e 21 67
e 21 76
e 22 29
e 22 35
e 22 39
e 22 47
e 22 70
e 22 75
e 23 34
e 23 37
e 23 38
e 23 45
e 23 51
e 23 56
e 23 58
e 23 60
e 23 61
e 23 62
e 23 65
e 23 67
e 23 69
e 23 70
e 23 80
e 24 35
e 24 42
e 24 48
e 24 53
e 24 57
e 24 58
e 24 59
e 24 61
e 24 64
e 24 67
e 24 72
e 25 29
e 25 39
e 25 40
e 25 44
e 25 48
e 25 52
e 25 57
e 25 69
e 25 77
e 26 27
e 26 31
e 26 33
e 26 53
e 26 56
e 26 59
e 26 64
e 26 68
e 26 69
e 26 75
e 26 78
e 26 79
e 26 80
e 27 28
e 27 41
e 27 42
e 27 69
e 27 79
e 28 29
e 28 30
e 28 37
e 28 42
e 28 55
e 28 62
e 28 63
e 28 66
e 28 69
e 28 71
e 28 77
e 28 79
e 29 38
e 29 44
e 29 47
e 29 55
e 29 70
e 29 74
e 30 37
e 30 38
e 30 39
e 30 43
e 30 60
e 30 66
e 30 71
e 30 74
e 30 76
e 31 37
e 31 43
e 31 48
e 31 51
e 31 53
e 31 65
e 31 79
e 31 80
e 32 41
e 32 54
e 32 56
e 32 58
e 32 76
e 33 38
e 33 40
e 33 43
e 33 48
e 33 65
e 33 70
e 33 71
e 33 72
e 33 73
e 33 75
e 33 77
e 34 39
e 34 49
e 34 57
e 34 66
e 34 79
e 35 41
e 35 48
e 35 50
e 35 52
e 35 54
e 35 56
e 35 67
e 35 70
e 35 78
e 35 79
e 36 39
e 36 45
e 36 50
e 36 57
e 36 59
e 36 64
e 36 69
e 36 72
e 37 38
e 37 43
e 37 44
e 37 57
e 37 58
e 37 63
e 37 66
e 37 68
e 37 69
e 37 75
e 38 45
e 38 57
e 38 65
e 39 42
e 39 43
e 39 44
e 39 54
e 39 57
e 39 58
e 39 63
e 39 74
e 40 45
e 40 47
e 40 53
e 40 56
e 40 58
e 40 59
e 40 63
e 40 68
e 40 79
e 41 55
e 41 56
e 41 63
e 41 72
e 41 76
e 41 78
e 42 56
e 42 58
e 42 62
e 42 68
e 42 70
e 42 72
e 42 75
e 42 80
e 43 45
e 43 48
e 43 60
e 43 65
e 43 67
e 43 71
e 43 76
e 43 77
e 44 55
e 44 63
e 44 73
e 44 75
e 44 80
e 45 53
e 45 58
e 45 64
e 45 66
e 45 75
e 45 78
e 46 51
e 46 54
e 46 65
e 46 74
e 46 77
e 47 49
e 47 55
e 47 67
e 47 68
e 47 75
e 47 78
e 48 51
e 48 52
e 48 58
e 48 63
e 48 65
e 49 53
e 49 58
e 49 71
e 49 80
e 50 51
e 50 64
e 50 65
e 50 75
e 50 80
e 51 52
e 51 56
e 51 59
e 51 62
e 51 73
e 51 75
e 52 57
e 52 59
e 52 63
e 52 64
e 52 74
e 52 78
e 52 79
e 53 55
e 53 57
e 53 66
e 53 68
e 53 80
e 54 58
e 54 62
e 54 63
e 54 64
e 54 69
e 54 70
e 54 79
e 55 57
e 55 59
e 55 66
e 55 70
e 55 71
e 55 73
e 55 78
e 56 58
e 56 60
e 56 62
e 56 65
e 56 67
e 56 68
e 56 77
e 57 60
e 57 71
e 57 74
e 58 64
e 59 63
e 59 65
e 59 79
e 60 61
e 60 65
e 60 66
e 60 74
e 60 79
e 61 78
e 61 80
e 62 71
e 63 67
e 63 68
e 65 70
e 65 78
e 66 72
e 66 73
e 67 75
e 67 76
e 67 77
e 68 78
e 69 75
e 69 78
e 70 72
e 70 79
e 70 80
e 72 76
e 72 80
e 73 76
e 73 78
e 73 79
e 75 77
e 75 79
e 76 77
e 76 80
